peakDumbCharging = 37000; 
Machine = anon_enum(16); 
machineSpeed = [3700,3700,3700,3700,3700,3700,3700,3700,3700,3700,3700,3700,3700,3700,3700,3700]; 
machineLoad = [3700,3700,3700,3700,3700,3700,3700,3700,3700,3700,3700,3700,3700,3700,3700,3700]; 
Car = anon_enum(44); 
demandCar = [4640,10600,2080,8720,24480,14840,7640,3160,4760,11200,3640,6800,11920,9760,8840,200,8080,8200,4840,8680,1520,3200,9640,7240,8840,16400,3840,31000,3840,29640,24600,1440,6040,6240,25160,320,11800,1920,9520,12560,10280,8080,3160,8160]; 
arrivalCar = [76,64,63,63,60,60,60,59,58,58,55,54,54,52,52,51,50,48,47,46,46,45,45,45,44,44,43,42,42,41,39,38,38,37,37,37,36,36,35,34,34,33,32,30]; 
departureCar = [78,69,65,66,69,67,63,61,61,75,59,58,62,59,55,52,55,53,51,52,48,48,52,49,50,55,46,54,44,50,51,40,41,41,46,38,43,38,43,41,38,38,34,33]; 
